
Gurobi 12.0.2 (win64) logging started Thu May 29 14:02:37 2025

Set parameter LogFile to value "data/solutions/rheinruhr/rheinruhr.log"
Gurobi Optimizer version 12.0.2 build v12.0.2rc0 (win64 - Windows 11.0 (26100.2))

CPU model: Intel(R) Core(TM) i5-14600KF, instruction set [SSE2|AVX|AVX2]
Thread count: 14 physical cores, 20 logical processors, using up to 1 threads

Non-default parameters:
TimeLimit  3600
FeasibilityTol  1e-07
IntFeasTol  1e-07
MIPGap  0
Threads  1
LazyConstraints  1

Academic license 2670408 - for non-commercial use only - registered to s6___@uni-bonn.de
Optimize a model with 3344 rows, 3909 columns and 14988 nonzeros
Model fingerprint: 0x84f05cda
Model has 1 quadratic constraint
Variable types: 3 continuous, 3906 integer (3906 binary)
Coefficient statistics:
  Matrix range     [1e+00, 7e+04]
  QMatrix range    [1e+00, 1e+01]
  Objective range  [1e+00, 1e+00]
  Bounds range     [1e+00, 1e+00]
  RHS range        [1e+00, 1e+00]
Presolve removed 1 rows and 0 columns
Presolve time: 0.01s
Presolved: 3343 rows, 3909 columns, 14422 nonzeros
Presolved model has 1 quadratic constraint(s)
Variable types: 2 continuous, 3907 integer (3906 binary)

Root relaxation: objective 0.000000e+00, 6 iterations, 0.00 seconds (0.00 work units)

    Nodes    |    Current Node    |     Objective Bounds      |     Work
 Expl Unexpl |  Obj  Depth IntInf | Incumbent    BestBd   Gap | It/Node Time

     0     0    0.00000    0    -          -    0.00000      -     -    0s
     0     0    0.00000    0    9          -    0.00000      -     -    0s
H    0     0                    10556.578977    0.00000   100%     -    0s
H    0     0                    2614.7222743    0.00000   100%     -    0s
H    0     0                    2456.6813863    0.00000   100%     -    0s
H    0     0                    1569.5488673    0.00000   100%     -    0s
     0     0    0.00000    0   11 1569.54887    0.00000   100%     -    0s
H    0     0                     509.8443078    0.00000   100%     -    0s
     0     0    0.00000    0   10  509.84431    0.00000   100%     -    0s
     0     0    0.00000    0    1  509.84431    0.00000   100%     -    0s
     0     0    0.00000    0    1  509.84431    0.00000   100%     -    0s
     0     0    0.00000    0    1  509.84431    0.00000   100%     -    0s
     0     0    0.00000    0    6  509.84431    0.00000   100%     -    0s
H    0     0                     488.5622207    0.00000   100%     -    0s
     0     0    0.00000    0   17  488.56222    0.00000   100%     -    0s
     0     0    0.00000    0   17  488.56222    0.00000   100%     -    0s
     0     2    0.00000    0   17  488.56222    0.00000   100%     -    0s
  1172  1160   18.63456  634  528  488.56222   18.63456  96.2%  29.6    5s
H 1180  1108                     442.6763253   21.83394  95.1%  31.7    6s
H 1228  1067                     417.0301303   34.67516  91.7%  43.0    9s
  1264  1086   34.67516   84  139  417.03013   34.67516  91.7%  50.1   10s
H 1306  1042                     384.0668559   36.76809  90.4%  59.1   10s

Cutting planes:
  Gomory: 4

Explored 1610 nodes (122691 simplex iterations) in 12.95 seconds (28.32 work units)
Thread count was 1 (of 20 available processors)

Solution count 9: 384.067 417.03 442.676 ... 10556.6

Optimal solution found (tolerance 0.00e+00)
Best objective 3.840668559072e+02, best bound 3.840668559072e+02, gap 0.0000%

User-callback calls 5319, time in user-callback 0.01 sec
